n = 10; 

m=14; 


92	97	99	88	97	96	94	47	33	99
58	30	9	24	74	95	27	67	37	25
73	56	24	52	76	72	64	3	51	11
6	92	50	61	72	9	47	54	6	95
1	12	76	69	65	49	41	16	59	16
47	50	5	25	45	11	38	16	84	78
82	68	12	35	15	32	61	61	50	85
75	51	54	4	87	80	68	37	87	35
6	59	87	12	10	83	92	63	74	86
75	14	53	49	40	19	25	54	5	37
9	59	42	13	56	27	13	29	20	30
62	93	58	32	41	7	16	47	90	35
1	63	75	2	28	25	35	92	37	12
73	56	24	52	76	72	64	3 	51	11

 

 
